benchmarks_CP/INST_36x36/55/inst36x36_55_35.dzn
S=6;
start=[|
-1,	-1,	6,	-1,	2,	-1,	19,	-1,	-1,	3,	-1,	-1,	33,	-1,	36,	-1,	9,	-1,	7,	-1,	18,	34,	26,	-1,	31,	11,	30,	32,	12,	-1,	-1,	-1,	28,	22,	-1,	35|
23,	-1,	30,	-1,	4,	-1,	-1,	-1,	6,	27,	-1,	-1,	28,	32,	3,	8,	-1,	11,	1,	-1,	-1,	-1,	24,	16,	-1,	-1,	33,	-1,	20,	-1,	19,	-1,	15,	-1,	-1,	17|
-1,	-1,	3,	22,	-1,	10,	7,	34,	-1,	-1,	8,	-1,	5,	27,	-1,	-1,	-1,	1,	-1,	-1,	25,	-1,	28,	-1,	-1,	-1,	19,	-1,	-1,	-1,	-1,	-1,	-1,	-1,	2,	9|
-1,	-1,	7,	8,	-1,	12,	28,	5,	-1,	20,	4,	-1,	29,	-1,	10,	26,	-1,	17,	27,	3,	-1,	-1,	19,	30,	-1,	15,	25,	1,	36,	-1,	32,	18,	-1,	-1,	33,	-1|
11,	13,	-1,	24,	28,	19,	22,	-1,	-1,	-1,	10,	-1,	-1,	30,	-1,	-1,	16,	-1,	14,	32,	-1,	17,	-1,	-1,	-1,	-1,	-1,	-1,	27,	-1,	-1,	8,	-1,	36,	-1,	29|
-1,	-1,	32,	16,	17,	-1,	-1,	-1,	-1,	9,	12,	-1,	-1,	-1,	23,	-1,	19,	14,	-1,	-1,	-1,	-1,	8,	22,	-1,	3,	-1,	35,	4,	-1,	-1,	-1,	27,	25,	-1,	-1|
13,	5,	-1,	-1,	1,	4,	-1,	-1,	2,	-1,	14,	33,	20,	-1,	24,	3,	-1,	-1,	16,	-1,	-1,	-1,	27,	-1,	-1,	-1,	22,	25,	31,	32,	21,	-1,	-1,	12,	8,	11|
-1,	23,	-1,	7,	-1,	2,	16,	-1,	20,	22,	-1,	-1,	14,	6,	-1,	-1,	30,	-1,	-1,	-1,	-1,	3,	-1,	18,	15,	17,	-1,	12,	-1,	-1,	27,	-1,	33,	-1,	29,	-1|
-1,	-1,	-1,	28,	22,	31,	-1,	-1,	-1,	10,	-1,	-1,	26,	-1,	-1,	16,	36,	33,	13,	12,	-1,	-1,	17,	-1,	6,	-1,	-1,	-1,	-1,	29,	-1,	-1,	-1,	-1,	20,	2|
17,	-1,	16,	-1,	33,	-1,	12,	-1,	25,	21,	-1,	-1,	-1,	1,	-1,	10,	2,	27,	28,	9,	15,	-1,	11,	-1,	26,	-1,	18,	-1,	24,	5,	31,	-1,	-1,	3,	14,	32|
25,	32,	8,	15,	-1,	-1,	-1,	29,	34,	7,	-1,	-1,	4,	-1,	-1,	22,	-1,	12,	-1,	33,	24,	10,	30,	-1,	-1,	16,	20,	-1,	-1,	-1,	-1,	-1,	19,	-1,	-1,	26|
-1,	6,	24,	12,	-1,	26,	31,	36,	-1,	-1,	5,	27,	-1,	11,	32,	-1,	23,	8,	-1,	-1,	7,	1,	4,	34,	2,	28,	3,	-1,	13,	33,	25,	-1,	35,	18,	-1,	10|
-1,	-1,	-1,	-1,	6,	35,	-1,	18,	30,	14,	-1,	-1,	-1,	23,	-1,	13,	20,	26,	-1,	21,	-1,	-1,	12,	-1,	8,	25,	5,	31,	32,	22,	-1,	-1,	-1,	19,	9,	-1|
16,	17,	-1,	19,	-1,	-1,	29,	12,	32,	2,	21,	6,	35,	36,	22,	-1,	-1,	-1,	-1,	-1,	13,	31,	18,	25,	33,	-1,	-1,	9,	-1,	-1,	14,	34,	23,	-1,	26,	28|
4,	-1,	-1,	-1,	14,	22,	-1,	-1,	-1,	11,	35,	-1,	19,	34,	-1,	21,	-1,	7,	-1,	28,	-1,	9,	6,	32,	36,	1,	12,	-1,	29,	30,	-1,	5,	17,	10,	18,	-1|
31,	21,	1,	18,	32,	8,	27,	20,	-1,	5,	-1,	10,	9,	-1,	2,	-1,	25,	28,	-1,	-1,	35,	-1,	-1,	36,	-1,	-1,	4,	-1,	34,	15,	7,	6,	-1,	13,	24,	12|
-1,	-1,	28,	34,	12,	25,	4,	7,	36,	23,	9,	13,	10,	-1,	-1,	31,	-1,	5,	-1,	-1,	22,	-1,	15,	-1,	-1,	27,	16,	-1,	18,	-1,	-1,	32,	21,	30,	35,	1|
29,	9,	36,	13,	30,	3,	34,	19,	26,	8,	1,	25,	-1,	-1,	18,	-1,	32,	-1,	24,	23,	5,	-1,	-1,	-1,	35,	-1,	17,	-1,	6,	2,	-1,	31,	-1,	27,	22,	-1|
1,	24,	-1,	-1,	15,	-1,	9,	10,	3,	35,	-1,	-1,	-1,	33,	-1,	-1,	8,	-1,	-1,	-1,	-1,	-1,	-1,	-1,	11,	-1,	-1,	-1,	5,	25,	-1,	-1,	-1,	29,	23,	-1|
-1,	-1,	5,	-1,	-1,	16,	-1,	15,	14,	24,	31,	-1,	-1,	13,	-1,	-1,	-1,	-1,	-1,	34,	20,	8,	1,	23,	-1,	32,	-1,	-1,	-1,	21,	-1,	26,	2,	35,	30,	33|
-1,	31,	-1,	29,	8,	20,	-1,	2,	-1,	-1,	30,	-1,	3,	-1,	26,	-1,	-1,	21,	9,	-1,	11,	28,	25,	-1,	13,	12,	-1,	34,	35,	18,	-1,	-1,	-1,	17,	10,	7|
9,	22,	11,	6,	-1,	28,	-1,	-1,	-1,	19,	-1,	-1,	-1,	35,	-1,	5,	-1,	2,	18,	-1,	30,	-1,	-1,	15,	-1,	8,	27,	-1,	-1,	-1,	36,	-1,	-1,	-1,	-1,	16|
26,	14,	35,	32,	7,	-1,	-1,	23,	-1,	6,	28,	-1,	36,	-1,	17,	1,	-1,	10,	2,	5,	-1,	-1,	-1,	31,	-1,	33,	9,	15,	30,	-1,	8,	-1,	24,	-1,	27,	-1|
30,	-1,	23,	25,	-1,	34,	-1,	-1,	-1,	4,	18,	21,	22,	19,	28,	-1,	11,	24,	10,	29,	36,	26,	35,	-1,	-1,	2,	-1,	-1,	16,	20,	3,	14,	5,	9,	-1,	-1|
2,	-1,	-1,	21,	3,	32,	5,	6,	7,	12,	16,	-1,	23,	-1,	30,	29,	26,	22,	-1,	24,	19,	25,	-1,	-1,	34,	13,	-1,	-1,	9,	11,	17,	35,	18,	-1,	36,	-1|
15,	19,	14,	-1,	-1,	7,	11,	-1,	17,	-1,	22,	30,	-1,	3,	8,	-1,	28,	-1,	-1,	16,	4,	13,	-1,	27,	-1,	36,	1,	-1,	26,	-1,	-1,	29,	25,	-1,	5,	-1|
12,	36,	-1,	-1,	35,	30,	-1,	33,	28,	18,	-1,	-1,	-1,	21,	-1,	-1,	-1,	19,	-1,	-1,	14,	-1,	23,	29,	25,	-1,	7,	-1,	-1,	-1,	-1,	-1,	-1,	6,	-1,	-1|
5,	8,	17,	31,	23,	6,	-1,	-1,	-1,	36,	19,	9,	18,	7,	-1,	35,	-1,	15,	11,	10,	28,	-1,	-1,	12,	27,	-1,	-1,	16,	-1,	-1,	34,	-1,	26,	-1,	21,	14|
22,	-1,	25,	-1,	-1,	33,	-1,	-1,	-1,	-1,	13,	34,	17,	-1,	1,	-1,	4,	-1,	6,	-1,	8,	-1,	-1,	-1,	-1,	-1,	-1,	-1,	-1,	-1,	24,	3,	-1,	20,	-1,	31|
-1,	-1,	34,	-1,	29,	-1,	-1,	-1,	23,	-1,	-1,	8,	-1,	12,	33,	-1,	-1,	-1,	26,	2,	17,	18,	-1,	-1,	-1,	-1,	-1,	20,	-1,	35,	15,	22,	4,	11,	19,	-1|
32,	4,	12,	-1,	-1,	-1,	-1,	9,	-1,	-1,	-1,	31,	-1,	26,	13,	-1,	10,	30,	22,	19,	-1,	24,	33,	3,	20,	29,	34,	-1,	-1,	-1,	18,	2,	14,	23,	11,	5|
-1,	-1,	31,	-1,	36,	9,	23,	11,	16,	-1,	27,	3,	-1,	4,	19,	-1,	-1,	-1,	35,	-1,	1,	12,	2,	-1,	17,	24,	32,	-1,	-1,	-1,	-1,	33,	13,	-1,	6,	-1|
28,	-1,	-1,	1,	34,	24,	14,	4,	-1,	32,	2,	18,	27,	31,	-1,	17,	-1,	-1,	30,	25,	29,	5,	-1,	-1,	12,	35,	23,	-1,	-1,	26,	9,	-1,	-1,	15,	3,	19|
-1,	33,	2,	35,	25,	-1,	-1,	24,	12,	34,	6,	19,	-1,	28,	-1,	9,	-1,	-1,	-1,	7,	-1,	-1,	13,	17,	-1,	18,	-1,	-1,	-1,	31,	16,	-1,	29,	-1,	32,	22|
-1,	20,	-1,	26,	-1,	-1,	-1,	-1,	21,	25,	-1,	5,	-1,	2,	-1,	-1,	35,	-1,	32,	-1,	27,	11,	14,	28,	3,	-1,	-1,	33,	-1,	36,	30,	17,	-1,	-1,	1,	4|
18,	27,	-1,	3,	-1,	-1,	-1,	30,	-1,	17,	-1,	20,	-1,	-1,	14,	6,	5,	32,	23,	-1,	-1,	4,	9,	-1,	10,	7,	-1,	-1,	-1,	28,	35,	36,	-1,	31,	-1,	-1|];
